NAME: kroA150
COMMENT: Local search tour for kroA150 (30362.272545893833)
TYPE: TOUR
DIMENSION: 150
TOUR_SECTION: 1 63 6 49 90 106 79 137 134 53 88 16 94 22 70 129 26 124 118 119 143 56 139 97 4 65 66 19 75 92 8 42 122 80 31 89 138 133 148 142 105 67 108 58 110 77 20 57 7 9 117 34 135 140 145 87 125 51 61 25 81 69 73 50 44 114 144 64 40 54 2 116 82 126 95 13 76 33 146 103 147 37 5 52 78 96 101 39 68 85 107 121 30 112 132 29 14 48 100 71 41 136 128 43 3 46 123 115 120 149 55 83 12 27 86 35 150 62 60 23 98 45 32 11 15 17 21 74 141 59 127 36 99 102 111 104 38 24 18 84 10 72 113 47 109 91 131 93 28 130 -1
EOF